param M := 4;  # Number of rows
param N := 5;  # Number of columns
param PIRELLONE :  1 2 3 4 5 :=
           1   1 0 1 0 0
           2   1 0 1 0 0
           3   0 1 0 1 1
           4   1 0 1 1 0;
end;
